PCE                                     
   1.00000000000000     
    10.0000000000000000    0.0000000000000000    0.0000000000000000
     0.0000000000000000   10.0000000000000000    0.0000000000000000
     0.0000000000000000    0.0000000000000000   10.0000000000000000
   Cl   C 
     4     2
Direct
  0.6799139232197654  0.6395689878107280  0.5137140041060171
  0.3622811290665527  0.6394494938239598  0.5139071099412574
  0.3622806227384877  0.3499255194604222  0.5139011335313095
  0.6800246259825027  0.3498512155789772  0.5140095718633213
  0.4534911873980661  0.4946961932071762  0.5139824967884712
  0.5890185005946194  0.4946186141187484  0.5140657017696225
 
  0.00000000E+00  0.00000000E+00  0.00000000E+00
  0.00000000E+00  0.00000000E+00  0.00000000E+00
  0.00000000E+00  0.00000000E+00  0.00000000E+00
  0.00000000E+00  0.00000000E+00  0.00000000E+00
  0.00000000E+00  0.00000000E+00  0.00000000E+00
  0.00000000E+00  0.00000000E+00  0.00000000E+00
