# Structural Optimization
PREC = N
ISTART = 0
ICHARG = 2
NPAR = 4
ALGO = F
LREAL = Auto
ENCUT = 500
NSW = 500
NELM = 200
EDIFF = 1E-04  
EDIFFG = -0.02 
IBRION = 2 
ISIF = 2
ISMEAR = 0       
SIGMA = 0.05     
LCHARG = F
LWAVE = F
