PCE
1.0
       10.0000000000         0.0000000000         0.0000000000
        0.0000000000        10.0000000000         0.0000000000
        0.0000000000         0.0000000000        10.0000000000
   Cl    C
    4    2
Direct
     0.681159973         0.641030014         0.513809979
     0.361009985         0.640919983         0.514020026
     0.361299992         0.348269999         0.513800025
     0.681230009         0.348470002         0.514020026
     0.454290003         0.494650036         0.513989985
     0.588020027         0.494769990         0.513939977
