%chk=Eu_Favi_T_CP2.chk
%nprocshared=20
%mem=64000MB	
#p b3lyp/gen 5d 7f pseudo=read counterpoise=3 empiricaldispersion=gd3bj scf=xqc 

Single Point Calculation

0 13 0 13 0 1 0 1
 Eu               0    1.85236600   -0.69015600    0.74519400 1
 O                0    3.60162600   -1.50164700   -0.68920400 1
 H                0    5.80438700   -1.90991000   -1.66902000 1
 O                0    0.89766400    0.77801100   -0.82795100 1
 N               -1    3.32063300   -0.81008400    2.84029300 1
 C               -1    3.65521600   -1.88202500    3.49860000 1
 H                0    3.30183100   -2.86830300    3.23170900 1
 C               -1    4.75098100   -0.31149000    4.50730700 1
 C               -1    4.00342300    0.18702400    3.49645100 1
 H                0    3.93212100    1.20859200    3.15987300 1
 C               -1    1.77743100    2.27340600   -2.47266000 1
 C               -1    1.72461500    3.63970100   -2.82972800 1
 H                0    0.86426600    4.21737700   -2.50617500 1
 C               -1    2.76057800    4.22645500   -3.55975300 1
 C               -1    3.78949800    3.40061200   -3.98780300 1
 H                0    4.60045500    3.82010900   -4.57979200 1
 C               -1    3.84916000    2.05909000   -3.63577800 1
 C               -1    2.81847600    1.48338100   -2.86197900 1
 O                0    0.53905100   -2.04380500    2.30223300 1
 C               -1   -0.61827200   -1.57757900    2.13840800 1
 H                0   -2.86546000   -0.33686600    3.02201800 1
 O                0    1.21546100    1.24797700    2.09157100 1
 O                0   -0.64421900    2.15305800    1.19428800 1
 O                0   -3.04197800    3.07754400   -0.41926500 1
 N               -1    4.51188000   -1.67511400    4.52320500 1
 C               -1    2.69556700    5.11307300    2.74141600 1
 C               -1    2.07748300    6.17264800    2.10107400 1
 C               -1    0.96028100    5.98206400    1.29729100 1
 C               -1    0.46808000    4.67381800    1.21225400 1
 H                0   -0.42228600    4.46184000    0.62499200 1
 C               -1    1.05532400    3.61337600    1.87051600 1
 C               -1    2.21194900    3.83399700    2.61045000 1
 H                0    2.68425800    2.99191100    3.10289600 1
 C               -1    0.50339600    2.22234200    1.72086700 1
 H                0    5.39999000    0.17148700    5.22129600 1
 C               -1   -6.92563600    3.84305000    2.22112200 1
 C               -1   -6.97845100    5.20934500    1.86405400 1
 H                0   -7.82103300    5.81072900    2.19599600 1
 C               -1   -5.94181000    5.79459300    1.13350500 1
 C               -1   -4.91394300    4.96935100    0.70618400 1
 H                0   -4.10417900    5.36169300    0.09644700 1
 C               -1   -4.85390600    3.62873400    1.05800400 1
 C               -1   -5.88496400    3.05212000    1.83200800 1
 C               -1   -3.74795000    2.73951400    0.57392200 1
 O                0   -1.25825600   -1.14857600   -1.57515400 1
 O                0    0.65918800   -2.02859200   -0.77554200 1
 O                0    3.01509900   -2.99177400    0.85015600 1
 N               -1   -4.51164600    1.78005300   -4.06285300 1
 C               -1   -2.69495900   -5.00723000   -2.28126800 1
 C               -1   -2.07646600   -6.06776700   -1.63954500 1
 H                0   -2.48938200   -7.06776400   -1.75956600 1
 C               -1   -0.95926400   -5.87718300   -0.83576200 1
 C               -1   -0.46692900   -4.56920800   -0.75167800 1
 H                0    0.42471800   -4.35770800   -0.16564100 1
 C               -1   -1.05430800   -3.50849500   -1.40898600 1
 C               -1   -2.21171500   -3.72905800   -2.15009700 1
 H                0   -2.68257700   -2.88936700   -2.64846000 1
 C               -1   -0.50278700   -2.11649900   -1.26071900 1
 H                0   -5.39547200   -0.06784400   -4.76224400 1
 C               -1    6.92665200   -3.73816800   -1.75959300 1
 C               -1    6.97868500   -5.10440600   -1.40370200 1
 H                0    7.82180900   -5.70521300   -1.73511300 1
 C               -1    5.94296100   -5.68998300   -0.67292800 1
 C               -1    4.91417700   -4.86441200   -0.24583200 1
 H                0    4.10376000   -5.25591400    0.36327800 1
 C               -1    4.85438000   -3.52261800   -0.59690400 1
 C               -1    5.88519800   -2.94718100   -1.37165600 1
 C               -1    3.74842400   -2.63339900   -0.11282100 1
 O                0   -0.54553900    2.11684300   -1.85245700 1
 C               -1    0.61928900    1.68246000   -1.67687900 1
 H                0    2.86155300    0.43839300   -2.56860700 1
 O                0   -0.86174900   -0.64877600    1.30922000 1
 N               -1   -3.31961600    0.91496500   -2.37876400 1
 C               -1   -3.65511600    1.98723600   -3.03729500 1
 H                0   -3.30665500    2.97336500   -2.76439400 1
 C               -1   -4.74996500    0.41637100   -4.04577700 1
 C               -1   -4.00281500   -0.08118100   -3.03630300 1
 H                0   -3.90284300   -1.11054000   -2.73127900 1
 C               -1   -1.77627900   -2.16879600    2.93323600 1
 C               -1   -1.72346400   -3.53509100    3.29030400 1
 H                0   -0.86165500   -4.11206400    2.96936900 1
 C               -1   -2.76047900   -4.12124400    4.02105800 1
 C               -1   -3.78797200   -3.29509800    4.44817400 1
 H                0   -4.59424600   -3.71477500    5.04700400 1
 C               -1   -3.84800800   -1.95448000    4.09635400 1
 C               -1   -2.81732500   -1.37877100    3.32255500 1
 Eu               0   -1.86022700    0.80259600   -0.24926500 1
 O                0   -3.56403700    1.63963100    1.19083100 1
 H                0   -5.81092900    2.00326300    2.09607400 1
 H                0   -7.74199300    3.42746900    2.80790300 1
 H                0   -4.67887500   -1.34011600    4.43020400 1
 H                0   -3.58168300   -5.19323500   -2.88265700 1
 H                0    3.58092600    5.29929300    3.34447900 1
 H                0    2.49060400    7.17264000    2.21985700 1
 H                0    4.67957800    1.44582600   -3.97234400 1
 H                0    7.74217000   -3.31947600   -2.34465200 1
 H                0   -4.88794700    2.47641200   -4.68595800 1
 H                0    4.88313400   -2.37158100    5.14895400 1
 H                0    5.96394600   -6.74358200   -0.41252500 1
 H                0    2.73500600    5.27967800   -3.82150800 1
 H                0   -5.96379300    6.84799000    0.87190500 1
 H                0   -2.73414700   -5.17431900    4.28301100 1
 H                0    0.47819600    6.80112100    0.77479900 1
 H                0   -0.47698300   -6.69649300   -0.31376800 1
 F                0    7.74555100    3.04238000   -2.94701200 2
 O                0    5.94334100   -0.37876300    0.72719500 2
 N                0    3.90034400    3.23979600   -0.16778000 2
 N                0    7.44606600    0.10837600   -0.92581300 2
 N                0    6.14380100    2.49286700   -1.43886000 2
 O                0    3.60651900    1.12117100    0.60439800 2
 C                0    6.33628900    0.43699200   -0.25253300 2
 C                0    7.90606700    0.95636300   -1.84121600 2
 C                0    7.25168200    2.16938200   -2.05839500 2
 C                0    5.63330800    1.62734300   -0.55241900 2
 C                0    4.28528100    1.96479600    0.01345500 2
 H                0    8.79434600    0.68117000   -2.40257000 2
 H                0    6.47020300   -1.19641600    0.64621700 2
 H                0    4.39679400    3.80638000   -0.84269600 2
 H                0    2.94980400    3.48703400    0.07784800 2
 F                0   -7.68454800   -4.20666900   -2.26627400 3 
 O                0   -5.91306600    0.45585900   -0.37212900 3 
 N                0   -3.96306300   -3.14431300    0.56166500 3 
 N                0   -7.48176500   -0.70511100   -1.56820900 3 
 N                0   -6.09476800   -3.06359400   -1.12029800 3 
 O                0   -3.60178700   -0.93357200    0.16012400 3 
 C                0   -6.33936800   -0.70400200   -0.87488400 3 
 C                0   -7.92765800   -1.86582600   -2.04399100 3 
 C                0   -7.21888800   -3.04142100   -1.79847900 3 
 C                0   -5.61641300   -1.90214200   -0.65584500 3 
 C                0   -4.29549600   -1.94544600    0.05755400 3 
 H                0   -8.85084200   -1.87060100   -2.61632300 3 
 H                0   -6.55467300    1.14312700   -0.62970900 3 
 H                0   -4.48498300   -3.96154500    0.27806700 3 
 H                0   -3.04601800   -3.26065600    0.97478800 3 

C H N O F 0
6-31G(d)
****
Eu 0
MWB28
****

Eu 0
MWB28


