%chk=mil100fe-pinene-example02-cp2-b3lyp.chk	
%nprocshared=20		
%mem=64000MB
#p b3lyp/tzvp empiricaldispersion=gd3bj counterpoise=2 scf=xqc

mil100fe-pinene-example02-cp2-b3lyp single point calculation

0 16 0 16 0 1
8        1.541270000      1.189590000     -1.152210000 1
8       -0.233220000      1.358640000     -2.516740000 1
8       -3.356600000     -1.438030000      0.459420000 1
8       -2.795020000     -1.495370000     -1.714230000 1
8       -1.070870000      1.282860000      2.558360000 1
8        0.902680000      1.660110000      1.553560000 1
8        1.387130000     -1.583790000     -0.749200000 1
8       -0.109980000     -1.402660000     -2.409570000 1
8        1.072340000     -1.142650000      1.946950000 1
8       -1.081040000     -1.655010000      2.341410000 1
8       -0.911950000     -0.021730000      0.058860000 1
8       -3.236900000      1.475440000      0.614640000 1
8       -2.870120000      1.326820000     -1.598650000 1
6        0.950930000      1.651520000     -2.175210000 1
6       -3.450360000     -1.909040000     -0.699930000 1
6       -0.037640000      1.965560000      2.362920000 1
6        0.874010000     -1.962030000     -1.842660000 1
6        0.145120000     -1.862370000      2.464330000 1
6       -3.381600000      1.875520000     -0.562390000 1
26       0.913380000      0.042360000      0.385990000 1
26      -1.448090000     -0.039710000     -1.708880000 1
26      -2.316460000     -0.112370000      1.612710000 1 
6       -4.213250000      3.091010000     -0.790760000 1
6       -4.347930000      3.626640000     -2.072430000 1
6       -4.854350000      3.699680000      0.289740000 1
6       -5.117400000      4.764980000     -2.270650000 1
1       -3.844570000      3.142530000     -2.897510000 1
6       -5.624180000      4.836360000      0.087350000 1
1       -4.739360000      3.266610000      1.273700000 1
6       -5.755790000      5.370420000     -1.191820000 1
1       -5.220760000      5.181000000     -3.264890000 1
1       -6.122720000      5.307070000      0.925240000 1
1       -6.356470000      6.258020000     -1.347880000 1
6       -4.392970000     -3.039830000     -0.916710000 1
6       -4.512960000     -3.629510000     -2.176250000 1
6       -5.156470000     -3.513500000      0.152190000 1
6       -5.391170000     -4.687720000     -2.364210000 1
1       -3.912560000     -3.250880000     -2.991510000 1
6       -6.034510000     -4.570650000     -0.040990000 1
1       -5.048260000     -3.042530000      1.119560000 1
6       -6.152360000     -5.158520000     -1.297680000 1
1       -5.483680000     -5.146360000     -3.340570000 1
1       -6.627620000     -4.937290000      0.787130000 1
1       -6.837470000     -5.984120000     -1.446140000 1
6        1.702100000      2.606650000     -3.030360000 1
6        3.048170000      2.867840000     -2.768720000 1
6        1.063480000      3.240810000     -4.098480000 1
6        3.749740000      3.756340000     -3.570810000 1
1        3.538100000      2.372210000     -1.944590000 1
6        1.767050000      4.134850000     -4.892880000 1
1        0.020860000      3.027220000     -4.287850000 1
6        3.110570000      4.392520000     -4.631150000 1
1        4.794920000      3.951580000     -3.366680000 1
1        1.270510000      4.631160000     -5.716970000 1 
1        3.658070000      5.088810000     -5.254360000 1
6        1.473410000     -3.151440000     -2.506130000 1
6        1.031910000     -3.545570000     -3.770320000 1
6        2.479410000     -3.875950000     -1.864030000 1
6        1.601920000     -4.648500000     -4.390780000 1
1        0.246770000     -2.978520000     -4.250430000 1
6        3.043190000     -4.981470000     -2.484580000 1
1        2.798880000     -3.569430000     -0.878370000 1
6        2.607640000     -5.366570000     -3.749520000 1
1        1.262230000     -4.950770000     -5.373230000 1
1        3.820270000     -5.544210000     -1.983220000 1
1        3.049670000     -6.228180000     -4.234300000 1 
8       -3.451060000     -0.149610000      3.055460000 1
1       -3.150930000      0.244510000      3.881190000 1
6        4.877980000      1.681490000      0.174610000 2
6        4.388500000      0.273950000      0.446300000 2
6        5.962600000      1.797630000     -0.593980000 2
6        5.591550000     -0.641110000      0.888340000 2 
6        6.666570000      0.560820000     -1.098730000 2
6        5.918240000     -0.699590000     -0.644340000 2
6        4.134850000      2.828680000      0.777130000 2
1        3.497610000      0.253070000      1.080530000 2
1        6.373760000      2.771420000     -0.840700000 2
6        5.109280000     -1.988360000      1.427500000 2
6        6.635070000     -0.082090000      1.844700000 2
1        7.702310000      0.545660000     -0.738810000 2
1        6.728800000      0.576000000     -2.193120000 2
1        6.390920000     -1.610380000     -1.017880000 2
1        7.005820000      0.893840000      1.539860000 2
1        7.486410000     -0.765330000      1.913390000 2
1        6.213640000      0.018420000      2.848770000 2
1        4.318810000     -2.432110000      0.824530000 2
1        4.723470000     -1.866840000      2.442560000 2
1        5.939320000     -2.698840000      1.470980000 2
1        3.084640000      2.811820000      0.475660000 2 
1        4.570960000      3.786540000      0.489420000 2
1        4.148680000      2.755740000      1.869690000 2
6        4.406110000     -0.493900000     -0.906620000 2
1        4.121560000      0.077160000     -1.787760000 2
1        3.837630000     -1.414880000     -0.881780000 2
6        0.584850000     -3.035270000      3.270410000 1
6       -0.363730000     -3.802600000      3.948940000 1
1       -1.405920000     -3.522310000      3.880650000 1
6        0.040540000     -4.902200000      4.693060000 1
1       -0.694550000     -5.496570000      5.220770000 1
6        1.389520000     -5.241700000      4.759720000 1
1        1.702360000     -6.100960000      5.340100000 1
6        2.336330000     -4.479190000      4.081230000 1
1        3.384960000     -4.744130000      4.132060000 1
6        1.935860000     -3.377070000      3.338530000 1
1        2.654840000     -2.773880000      2.804490000 1
6        0.112520000      3.235310000      3.129860000 1
6        1.272360000      4.002540000      3.017850000 1
1        2.063880000      3.663380000      2.367470000 1
6        1.396260000      5.184240000      3.735770000 1
1        2.298330000      5.776520000      3.648130000 1
6        0.361200000      5.607360000      4.564570000 1
1        0.458030000      6.529980000      5.123390000 1
6       -0.800080000      4.846830000      4.674080000 1
1       -1.606740000      5.178240000      5.315660000 1
6       -0.925100000      3.663640000      3.960120000 1
1       -1.820070000      3.061200000      4.027230000 1 

