%chk=mil100fe-pinene-example02.chk	
%nprocshared=20		
%mem=64000MB
#p b3lyp/tzvp opt empiricaldispersion=gd3bj

mil100fe-pinene-example02 optimization

0 16
O         -1.74011        1.05408        0.30481
O         -0.11986        1.42013        1.84914
O          3.61015       -1.10133       -0.88424
O          2.84500       -1.36240        1.23526
O          1.17552        1.43540       -3.19945
O         -0.96144        1.42322       -2.39175
O         -1.31231       -1.75826        0.07277
O          0.06311       -1.44663        1.85001
O         -0.71905       -1.40777       -2.64177
O          1.54117       -1.56736       -2.95805
O          0.96480        0.03838       -0.58441
O          3.07783        1.90562       -1.02389
O          2.67257        1.60174        1.19074
C         -1.29544        1.60101        1.37512
C          3.59269       -1.69066        0.24369
C         -0.01331        1.84366       -3.14232
C         -0.86960       -2.06976        1.23204
C          0.34824       -1.91909       -3.13904
C          3.06152        2.30363        0.17497
Fe        -0.83320       -0.12593       -1.07968
Fe         1.32361        0.07026        1.30034
Fe         2.50492        0.13551       -2.05242
C          3.53261        3.69955        0.45729
C          3.27392        4.30545        1.69962
C          4.21959        4.41663       -0.53904
C          3.69855        5.61453        1.94278
H          2.72528        3.74803        2.45500
C          4.65307        5.72065       -0.28809
H          4.40462        3.93467       -1.49617
C          4.39242        6.32224        0.95148
H          3.48799        6.08472        2.90239
H          5.19184        6.27097       -1.05815
H          4.72652        7.34117        1.14328
C          4.52319       -2.85030        0.42770
C          4.46570       -3.63671        1.59269
C          5.45352       -3.16190       -0.58102
C          5.33227       -4.72158        1.74798
H          3.73097       -3.39626        2.35747
C          6.32216       -4.24390       -0.41848
H          5.47894       -2.54845       -1.47853
C          6.26335       -5.02481        0.74439
H          5.28162       -5.33316        2.64778
H          7.04323       -4.48154       -1.19915
H          6.93901       -5.87044        0.86726
C         -2.21654        2.51500        2.11655
C         -3.51811        2.74767        1.63498
C         -1.78775        3.13734        3.30405
C         -4.37873        3.59657        2.33438
H         -3.84949        2.25998        0.72371
C         -2.65204        3.98691        3.99821
H         -0.78165        2.94143        3.66656
C         -3.94819        4.21864        3.51451
H         -5.38569        3.77054        1.95793
H         -2.31915        4.46802        4.91683
H         -4.62087        4.88109        4.05815
C         -1.48925       -3.24734        1.91589
C         -1.15058       -3.55089        3.24715
C         -2.42237       -4.04853        1.23276
C         -1.74723       -4.63908        3.88876
H         -0.42840       -2.92211        3.76221
C         -3.01200       -5.13918        1.87590
H         -2.66680       -3.80912        0.20131
C         -2.67792       -5.43440        3.20508
H         -1.48895       -4.86861        4.92157
H         -3.73212       -5.75849        1.34326
H         -3.14141       -6.28276        3.70718
O          3.76599        0.35048       -3.40588
H          3.54914        1.01090       -4.08942
C         -4.89866        1.27206       -1.46048
C         -4.26595       -0.11306       -1.48930
C         -6.10713        1.36564       -0.87447
C         -5.31774       -1.18519       -2.01007
C         -6.79343        0.11941       -0.34128
C         -5.88659       -1.11788       -0.53435
C         -4.16896        2.42277       -2.09533
H         -3.28090       -0.11870       -1.97547
H         -6.63072        2.32164       -0.81125
C         -4.64500       -2.53594       -2.31493
C         -6.23660       -0.81503       -3.17780
H         -7.76050       -0.02538       -0.85253
H         -7.03357        0.23728        0.72897
H         -6.34796       -2.03114       -0.13476
H         -6.72026        0.15702       -3.04269
H         -7.02155       -1.57634       -3.29917
H         -5.66426       -0.77911       -4.11637
H         -3.95271       -2.85443       -1.52929
H         -4.07042       -2.47247       -3.24943
H         -5.40520       -3.32154       -2.43726
H         -3.16605        2.54535       -1.66494
H         -4.72728        3.36152       -1.98534
H         -4.01400        2.23358       -3.16943
C         -4.44453       -0.74633       -0.06717
H         -4.34994       -0.06173        0.78055
H         -3.80579       -1.61339        0.09650
C         -0.19635       -2.94758       -4.34781
C          0.69959       -3.46880       -5.27567
H          1.76220       -3.21295       -5.21428
C          0.24514       -4.31520       -6.28182
H          0.95014       -4.72529       -7.01201
C         -1.10515       -4.64049       -6.36017
H         -1.46273       -5.30652       -7.15191
C         -2.00106       -4.11923       -5.43235
H         -3.06361       -4.37509       -5.49407
C         -1.54665       -3.27283       -4.42619
H         -2.25160       -2.86264       -3.69606
C         -0.19956        2.88450       -4.41700
C         -1.44222        3.50952       -4.43786
H         -2.19358        3.25964       -3.68196
C         -1.73023        4.45218       -5.41954
H         -2.70812        4.94396       -5.43602
C         -0.77569        4.76993       -6.38034
H         -1.00234        5.51171       -7.15280
C          0.46693        4.14488       -6.35948
H          1.21801        4.39481       -7.11558
C          0.75498        3.20222       -5.37781
H          1.73277        2.71035       -5.36135



