ALGO = VeryFast
MAXMIX = 40
IBRION = 0
MDALGO = 2
NSW = 20000  #timescale
NWRITE = 2
POTIM = 1.0
SMASS = 0.01
TEBEG = 300 
TEEND = 300
ISIF = 2
ISPIN = 1
NELM = 35
LWAVE = .FALSE.
LREAL = Auto
LCHARG = .FALSE.
NELMIN = 4
ISTART = 0
ISMEAR = 0
PREC = Normal
ISYM = 0
EDIFF = 1E-04
