xx
1.0
       15.2562494278         0.0000000000         0.0000000000
        0.0000000000        15.2562494278         0.0000000000
        0.0000000000         0.0000000000        15.2562494278
    C    H    O    F
   56   34    9    8
Direct
     0.297558367         0.420032769         0.367824674
     0.253117561         0.383981973         0.439139694
     0.289168358         0.316337585         0.487841040
     0.370970905         0.283695221         0.465817273
     0.415346175         0.313256860         0.391618192
     0.377591133         0.382343292         0.345210969
     0.498590738         0.267636210         0.361401051
     0.498590738         0.251183927         0.262163043
     0.582163036         0.312535852         0.391749263
     0.626013935         0.282777548         0.466210574
     0.708144188         0.314567804         0.488430977
     0.745047092         0.381622285         0.439598501
     0.701261759         0.417935282         0.368021309
     0.620835721         0.381032348         0.345210969
     0.738754630         0.497312576         0.320499778
     0.724465370         0.495280623         0.221261770
     0.702310562         0.579115152         0.364547312
     0.746816874         0.618115544         0.434354782
     0.710766077         0.687660813         0.480237603
     0.628963530         0.719385505         0.456902921
     0.584522724         0.686743140         0.383949190
     0.622212231         0.615886927         0.340426058
     0.501278162         0.731183946         0.351962298
     0.501212597         0.743506789         0.252134383
     0.417705864         0.687464178         0.384145826
     0.373854995         0.720303178         0.457361728
     0.291790247         0.689365029         0.480893075
     0.254821777         0.620475233         0.434813589
     0.298607111         0.581212640         0.364743948
     0.379033178         0.617132306         0.340491593
     0.261114299         0.500000000         0.320499778
     0.275403500         0.498033583         0.221261770
     0.843498588         0.455690295         0.535493672
     0.844350696         0.547259331         0.533396125
     0.862310529         0.411839426         0.613166749
     0.864014745         0.594322026         0.608906209
     0.881057024         0.550143361         0.686185956
     0.880204856         0.459229827         0.688283503
     0.543752551         0.244629234         0.590487480
     0.452314615         0.244760334         0.590356410
     0.588979959         0.271700114         0.665014327
     0.406956166         0.271896750         0.664752126
     0.543293715         0.300147474         0.737574756
     0.452445716         0.300213039         0.737509251
     0.456247449         0.763498545         0.579934478
     0.547619820         0.763367534         0.579737782
     0.411020070         0.739508390         0.655510068
     0.593043804         0.739442885         0.655247867
     0.456771821         0.714141726         0.729250312
     0.547619820         0.714141726         0.729119182
     0.155583739         0.458836555         0.535297036
     0.156370312         0.550405562         0.533658326
     0.135919720         0.414854586         0.612707913
     0.137492776         0.597337186         0.609430552
     0.118877500         0.462179452         0.688086867
     0.119598508         0.553093016         0.686448157
     0.411872178         0.407447755         0.288512886
     0.498328567         0.203859061         0.393322408
     0.498852938         0.311618209         0.223949194
     0.440385103         0.214084387         0.243547738
     0.587079048         0.406267941         0.288316250
     0.809020936         0.497050405         0.332232684
     0.655444503         0.495542824         0.202646434
     0.755075812         0.552437544         0.190979093
     0.587931156         0.588422775         0.284842253
     0.501540363         0.796140909         0.381261766
     0.500950456         0.681564927         0.216411293
     0.559418261         0.779819727         0.232011467
     0.412789822         0.589602649         0.284645617
     0.190847993         0.500721037         0.332232684
     0.344424427         0.497181475         0.202711999
     0.244924188         0.439631283         0.193404317
     0.556468666         0.213625550         0.243613273
     0.754027009         0.436419487         0.193469882
     0.245645225         0.555649340         0.191110194
     0.443334699         0.780278563         0.232077003
     0.746423602         0.717943490         0.533199489
     0.743408442         0.286185980         0.542703807
     0.253445327         0.288217932         0.541982770
     0.256591558         0.719975471         0.534051597
     0.659705043         0.271634579         0.666456342
     0.336165488         0.271896750         0.665997565
     0.867947578         0.664981604         0.607464135
     0.864932418         0.341114283         0.615067601
     0.663834512         0.739442885         0.656427681
     0.340294957         0.739573956         0.656952024
     0.134805411         0.668127835         0.608447373
     0.132117957         0.344195008         0.614149928
     0.550372779         0.504063904         0.788701355
     0.450675964         0.510880768         0.788635790
     0.407021701         0.216837376         0.516878307
     0.168693185         0.413215905         0.458541572
     0.829799294         0.409938544         0.458934873
     0.589176536         0.216378510         0.517206073
     0.592912734         0.788275361         0.505145431
     0.831241310         0.589668155         0.454805404
     0.170069635         0.592945516         0.455264241
     0.410757899         0.788734138         0.505604267
     0.500557125         0.507800102         0.749963164
     0.898295760         0.417345345         0.763596892
     0.899999976         0.595174134         0.759401917
     0.408857018         0.328267097         0.808824301
     0.586751342         0.328332663         0.809020877
     0.413314223         0.689102829         0.801745176
     0.591208518         0.689299464         0.801548600
     0.099999994         0.420163870         0.763138056
     0.101442039         0.597992659         0.759926260
