# Structural Optimization
PREC = N
ISTART = 0
ICHARG = 2
NPAR = 4
ALGO = F
LREAL = Auto
ENCUT = 450
NSW = 500
NELM = 200
EDIFF = 1E-05  
EDIFFG = -0.01 
IBRION = 2 
ISIF = 2
ISMEAR = 0
IVDW = 12       
SIGMA = 0.05     
LCHARG = F
LWAVE = F
