MIL125TINH2_OPT2
1.0
       18.6730003357         0.0000000000         0.0000000000
        0.0000000000        18.6730003357         0.0000000000
        0.0000000000         0.0000000000        18.1380004883
    O    C    H    N   Ti
   72   96   76   12   16
Direct
     0.853089988         0.767570019         0.581179976
     0.232429996         0.853089988         0.581179976
     0.146909997         0.232429996         0.418819994
     0.767570019         0.146909997         0.418819994
     0.939610004         0.684710026         0.500000000
     0.315290004         0.939610004         0.500000000
     0.000000000         0.806309998         0.570689976
     0.193690002         0.000000000         0.570689976
     0.886340022         0.886340022         0.500000000
     0.353089988         0.267569989         0.081179999
     0.732429981         0.353089988         0.081179999
     0.646910012         0.732429981         0.918820024
     0.267569989         0.646910012         0.918820024
     0.439610004         0.184709996         0.000000000
     0.815289974         0.439610004         0.000000000
     0.500000000         0.306309998         0.070689999
     0.693690002         0.500000000         0.070689999
     0.386339992         0.386339992         0.000000000
     0.146909997         0.232429996         0.581179976
     0.767570019         0.146909997         0.581179976
     0.853089988         0.767570019         0.418819994
     0.232429996         0.853089988         0.418819994
     0.060389999         0.315290004         0.500000000
     0.684710026         0.060389999         0.500000000
     0.000000000         0.193690002         0.570689976
     0.806309998         0.000000000         0.570689976
     0.113660000         0.113660000         0.500000000
     0.646910012         0.732429981         0.081179999
     0.267569989         0.646910012         0.081179999
     0.353089988         0.267569989         0.918820024
     0.732429981         0.353089988         0.918820024
     0.560389996         0.815289974         0.000000000
     0.184709996         0.560389996         0.000000000
     0.500000000         0.693690002         0.070689999
     0.306309998         0.500000000         0.070689999
     0.613659978         0.613659978         0.000000000
     0.146909997         0.767570019         0.418819994
     0.767570019         0.853089988         0.418819994
     0.853089988         0.232429996         0.581179976
     0.232429996         0.146909997         0.581179976
     0.060389999         0.684710026         0.500000000
     0.684710026         0.939610004         0.500000000
     0.000000000         0.806309998         0.429309994
     0.806309998         0.000000000         0.429309994
     0.113660000         0.886340022         0.500000000
     0.646910012         0.267569989         0.918820024
     0.267569989         0.353089988         0.918820024
     0.353089988         0.732429981         0.081179999
     0.732429981         0.646910012         0.081179999
     0.560389996         0.184709996         0.000000000
     0.184709996         0.439610004         0.000000000
     0.500000000         0.306309998         0.929310024
     0.306309998         0.500000000         0.929310024
     0.613659978         0.386339992         0.000000000
     0.853089988         0.232429996         0.418819994
     0.232429996         0.146909997         0.418819994
     0.146909997         0.767570019         0.581179976
     0.767570019         0.853089988         0.581179976
     0.939610004         0.315290004         0.500000000
     0.315290004         0.060389999         0.500000000
     0.000000000         0.193690002         0.429309994
     0.193690002         0.000000000         0.429309994
     0.886340022         0.113660000         0.500000000
     0.353089988         0.732429981         0.918820024
     0.732429981         0.646910012         0.918820024
     0.646910012         0.267569989         0.081179999
     0.267569989         0.353089988         0.081179999
     0.439610004         0.815289974         0.000000000
     0.815289974         0.560389996         0.000000000
     0.500000000         0.693690002         0.929310024
     0.693690002         0.500000000         0.929310024
     0.386339992         0.613659978         0.000000000
     0.715070009         0.808040023         0.715749979
     0.191960007         0.715070009         0.715749979
     0.284929991         0.191960007         0.284249991
     0.808040023         0.284929991         0.284249991
     0.934469998         0.537259996         0.500000000
     0.462740004         0.934469998         0.500000000
     0.799099982         0.799099982         0.610880017
     0.773299992         0.773299992         0.681159973
     0.200900003         0.799099982         0.610880017
     0.226699993         0.773299992         0.681159973
     0.215069994         0.308039993         0.215749994
     0.691959977         0.215069994         0.215749994
     0.784929991         0.691959977         0.784250021
     0.308039993         0.784929991         0.784250021
     0.434469998         0.037260000         0.000000000
     0.962740004         0.434469998         0.000000000
     0.299100012         0.299100012         0.110880002
     0.273299992         0.273299992         0.181160003
     0.700900018         0.299100012         0.110880002
     0.726700008         0.273299992         0.181160003
     0.284929991         0.191960007         0.715749979
     0.808040023         0.284929991         0.715749979
     0.715070009         0.808040023         0.284249991
     0.191960007         0.715070009         0.284249991
     0.065530002         0.462740004         0.500000000
     0.537259996         0.065530002         0.500000000
     0.200900003         0.200900003         0.610880017
     0.226699993         0.226699993         0.681159973
     0.799099982         0.200900003         0.610880017
     0.773299992         0.226699993         0.681159973
     0.784929991         0.691959977         0.215749994
     0.308039993         0.784929991         0.215749994
     0.215069994         0.308039993         0.784250021
     0.691959977         0.215069994         0.784250021
     0.565530002         0.962740004         0.000000000
     0.037260000         0.565530002         0.000000000
     0.700900018         0.700900018         0.110880002
     0.726700008         0.726700008         0.181160003
     0.299100012         0.700900018         0.110880002
     0.273299992         0.726700008         0.181160003
     0.284929991         0.808040023         0.284249991
     0.808040023         0.715070009         0.284249991
     0.715070009         0.191960007         0.715749979
     0.191960007         0.284929991         0.715749979
     0.065530002         0.537259996         0.500000000
     0.537259996         0.934469998         0.500000000
     0.200900003         0.799099982         0.389120013
     0.226699993         0.773299992         0.318839997
     0.799099982         0.799099982         0.389120013
     0.773299992         0.773299992         0.318839997
     0.784929991         0.308039993         0.784250021
     0.308039993         0.215069994         0.784250021
     0.215069994         0.691959977         0.215749994
     0.691959977         0.784929991         0.215749994
     0.565530002         0.037260000         0.000000000
     0.037260000         0.434469998         0.000000000
     0.700900018         0.299100012         0.889119983
     0.726700008         0.273299992         0.818840027
     0.299100012         0.299100012         0.889119983
     0.273299992         0.273299992         0.818840027
     0.715070009         0.191960007         0.284249991
     0.191960007         0.284929991         0.284249991
     0.284929991         0.808040023         0.715749979
     0.808040023         0.715070009         0.715749979
     0.934469998         0.462740004         0.500000000
     0.462740004         0.065530002         0.500000000
     0.799099982         0.200900003         0.389120013
     0.773299992         0.226699993         0.318839997
     0.200900003         0.200900003         0.389120013
     0.226699993         0.226699993         0.318839997
     0.215069994         0.691959977         0.784250021
     0.691959977         0.784929991         0.784250021
     0.784929991         0.308039993         0.215749994
     0.308039993         0.215069994         0.215749994
     0.434469998         0.962740004         0.000000000
     0.962740004         0.565530002         0.000000000
     0.299100012         0.700900018         0.889119983
     0.273299992         0.726700008         0.818840027
     0.700900018         0.700900018         0.889119983
     0.726700008         0.726700008         0.818840027
     0.000000000         0.653029978         0.500000000
     0.000000000         0.574310005         0.500000000
     0.500000000         0.153029993         0.000000000
     0.500000000         0.074309997         0.000000000
     0.000000000         0.346969992         0.500000000
     0.000000000         0.425689995         0.500000000
     0.500000000         0.846970022         0.000000000
     0.500000000         0.925689995         0.000000000
     0.346969992         0.000000000         0.500000000
     0.425689995         0.000000000         0.500000000
     0.846970022         0.500000000         0.000000000
     0.925689995         0.500000000         0.000000000
     0.653029978         0.000000000         0.500000000
     0.574310005         0.000000000         0.500000000
     0.153029993         0.500000000         0.000000000
     0.074309997         0.500000000         0.000000000
     0.688639998         0.852680027         0.688560009
     0.311360002         0.147320002         0.311439991
     0.623849988         0.130410001         0.208320007
     0.626680017         0.184479997         0.130469993
     0.852680027         0.311360002         0.311439991
     0.433169991         0.884320021         0.500000000
     0.788770020         0.000000000         0.620559990
     0.000000000         0.788770020         0.620559990
     0.040369999         0.676190019         0.996219993
     0.124629997         0.633090019         0.996619999
     0.188639998         0.352679998         0.188559994
     0.811360002         0.647319973         0.811439991
     0.123850003         0.630410016         0.708320022
     0.126680002         0.684480011         0.630469978
     0.352679998         0.811360002         0.811439991
     0.933170021         0.384319991         0.000000000
     0.288769990         0.500000000         0.120559998
     0.500000000         0.288769990         0.120559998
     0.540369987         0.176190004         0.496219993
     0.624629974         0.133090004         0.496619999
     0.311360002         0.147320002         0.688560009
     0.688639998         0.852680027         0.311439991
     0.376150012         0.869589984         0.208320007
     0.373320013         0.815519989         0.130469993
     0.147320002         0.688639998         0.311439991
     0.115680002         0.433169991         0.500000000
     0.211229995         0.000000000         0.620559990
     0.000000000         0.211229995         0.620559990
     0.324609995         0.039880000         0.007710000
     0.366649985         0.124100000         0.008370000
     0.811360002         0.647319973         0.188559994
     0.188639998         0.352679998         0.811439991
     0.876150012         0.369590014         0.708320022
     0.873319983         0.315519989         0.630469978
     0.647319973         0.188639998         0.811439991
     0.615679979         0.933170021         0.000000000
     0.711229980         0.500000000         0.120559998
     0.500000000         0.711229980         0.120559998
     0.824609995         0.539879978         0.507709980
     0.866649985         0.624100029         0.508369982
     0.311360002         0.852680027         0.311439991
     0.688639998         0.147320002         0.688560009
     0.376150012         0.130410001         0.791679978
     0.373320013         0.184479997         0.869530022
     0.147320002         0.311360002         0.688560009
     0.115680002         0.566829979         0.500000000
     0.566829979         0.884320021         0.500000000
     0.211229995         0.000000000         0.379440010
     0.000000000         0.788770020         0.379440010
     0.811360002         0.352679998         0.811439991
     0.188639998         0.647319973         0.188559994
     0.876150012         0.630410016         0.291680008
     0.873319983         0.684480011         0.369529992
     0.647319973         0.811360002         0.188559994
     0.615679979         0.066830002         0.000000000
     0.066830002         0.384319991         0.000000000
     0.711229980         0.500000000         0.879440010
     0.500000000         0.288769990         0.879440010
     0.688639998         0.147320002         0.311439991
     0.311360002         0.852680027         0.688560009
     0.623849988         0.869589984         0.791679978
     0.626680017         0.815519989         0.869530022
     0.852680027         0.688639998         0.688560009
     0.884320021         0.433169991         0.500000000
     0.433169991         0.115680002         0.500000000
     0.788770020         0.000000000         0.379440010
     0.000000000         0.211229995         0.379440010
     0.188639998         0.647319973         0.811439991
     0.811360002         0.352679998         0.188559994
     0.123850003         0.369590014         0.291680008
     0.126680002         0.315519989         0.369529992
     0.352679998         0.188639998         0.188559994
     0.384319991         0.933170021         0.000000000
     0.933170021         0.615679979         0.000000000
     0.288769990         0.500000000         0.879440010
     0.500000000         0.711229980         0.879440010
     0.635270000         0.178629994         0.185479999
     0.070349999         0.631200016         0.000000000
     0.135270000         0.678629994         0.685479999
     0.570349991         0.131200001         0.500000000
     0.364730000         0.821370006         0.185479999
     0.368800014         0.070349999         0.000000000
     0.864730000         0.321370006         0.685479999
     0.868799984         0.570349991         0.500000000
     0.364730000         0.178629994         0.814520001
     0.864730000         0.678629994         0.314520001
     0.635270000         0.821370006         0.814520001
     0.135270000         0.321370006         0.314520001
     0.917919993         0.794679999         0.500000000
     0.205320001         0.917919993         0.500000000
     0.417919993         0.294679999         0.000000000
     0.705320001         0.417919993         0.000000000
     0.082079999         0.205320001         0.500000000
     0.794679999         0.082079999         0.500000000
     0.582080007         0.705320001         0.000000000
     0.294679999         0.582080007         0.000000000
     0.082079999         0.794679999         0.500000000
     0.794679999         0.917919993         0.500000000
     0.582080007         0.294679999         0.000000000
     0.294679999         0.417919993         0.000000000
     0.917919993         0.205320001         0.500000000
     0.205320001         0.082079999         0.500000000
     0.417919993         0.705320001         0.000000000
     0.705320001         0.582080007         0.000000000
