MIL125TINH2_PIN_OPT_3_INP
1.0
       18.6730003357         0.0000000000         0.0000000000
        0.0000000000        18.6730003357         0.0000000000
        0.0000000000         0.0000000000        18.1380004883
    O    C    H    N   Ti
   72  106   92   12   16
Direct
     0.861679971         0.779760003         0.606019974
     0.238240004         0.846729994         0.560590029
     0.156059995         0.239789993         0.446040004
     0.776619971         0.139819995         0.398019999
     0.939080000         0.686819971         0.520290017
     0.315569997         0.939400017         0.483449996
     0.010970000         0.809629977         0.568740010
     0.192680001         0.990079999         0.566839993
     0.884540021         0.888859987         0.509750009
     0.361739993         0.279969990         0.105710000
     0.738520026         0.346639991         0.061349999
     0.656310022         0.739750028         0.946810007
     0.277000010         0.639029980         0.896290004
     0.439009994         0.186680004         0.019810000
     0.815519989         0.439449996         0.984040022
     0.510710001         0.309309989         0.069399998
     0.692799985         0.490060002         0.067769997
     0.384629995         0.388680011         0.009020000
     0.138390005         0.221540004         0.605719984
     0.761690021         0.153650001         0.560169995
     0.845910013         0.760160029         0.446079999
     0.225119993         0.857869983         0.397439986
     0.061230000         0.316109985         0.513960004
     0.685970008         0.061779998         0.483330011
     0.990400016         0.194020003         0.569440007
     0.804629982         0.008900000         0.568549991
     0.113830000         0.112960003         0.509000003
     0.637229979         0.721019983         0.107050002
     0.262690008         0.653190017         0.059400000
     0.346769989         0.260199994         0.945020020
     0.723969996         0.359010011         0.897319973
     0.561029971         0.815980017         0.014270000
     0.186120003         0.561720014         0.982460022
     0.489789993         0.693840027         0.068709999
     0.305189997         0.508899987         0.067309998
     0.613789976         0.612959981         0.009480000
     0.137040004         0.774219990         0.393570006
     0.760950029         0.845759988         0.438199997
     0.846099973         0.239940003         0.554729998
     0.226889998         0.138510004         0.600149989
     0.056790002         0.683709979         0.491270006
     0.683070004         0.943350017         0.508369982
     0.988210022         0.804239988         0.430460006
     0.807259977         0.991509974         0.430260003
     0.113279998         0.885240018         0.487140000
     0.636210024         0.275059998         0.893800020
     0.261299998         0.345369995         0.937579989
     0.346830010         0.739709973         0.053780001
     0.725650012         0.637929976         0.101839997
     0.556999981         0.183660001         0.992009997
     0.183210000         0.443329990         0.007740000
     0.488830000         0.304520011         0.930949986
     0.307350010         0.491100013         0.929279983
     0.613399982         0.385089993         0.989000022
     0.864170015         0.223869994         0.394470006
     0.238649994         0.152070001         0.436459988
     0.154269993         0.760079980         0.554270029
     0.771730006         0.861280024         0.600960016
     0.942229986         0.315660000         0.489039987
     0.314799994         0.057360001         0.512560010
     0.011990000         0.195449993         0.430480003
     0.193289995         0.007780000         0.429650009
     0.888469994         0.113440000         0.490370005
     0.364650011         0.722989976         0.892570019
     0.738749981         0.651899993         0.937380016
     0.654569983         0.259939998         0.055280000
     0.272150010         0.361869991         0.100790001
     0.442539990         0.815469980         0.986869991
     0.814819992         0.557330012         0.013560000
     0.512849987         0.695299983         0.929960012
     0.692929983         0.507799983         0.930909991
     0.388839990         0.613200009         0.988430023
     0.722549975         0.819819987         0.739019990
     0.199739993         0.700900018         0.690959990
     0.293210000         0.207519993         0.308569998
     0.818589985         0.273099989         0.258109987
     0.929949999         0.535700023         0.510500014
     0.463970006         0.935060024         0.494580001
     0.805939972         0.810500026         0.634119987
     0.781059980         0.786210001         0.705540001
     0.208220005         0.789950013         0.586960018
     0.234420002         0.759940028         0.654900014
     0.224010006         0.321700007         0.239639997
     0.698450029         0.202629998         0.193419993
     0.792200029         0.706130028         0.808279991
     0.320389986         0.770799994         0.755339980
     0.429830015         0.035580002         0.008290000
     0.963999987         0.435090005         0.994719982
     0.306490004         0.311289996         0.134110004
     0.282200009         0.287730008         0.205970004
     0.708100021         0.290309995         0.088289998
     0.733380020         0.261350006         0.157089993
     0.280119985         0.182030007         0.735880017
     0.799390018         0.299490005         0.690880001
     0.705959976         0.790849984         0.310880005
     0.181700006         0.726610005         0.255919993
     0.065190002         0.464509994         0.504660010
     0.534929991         0.070770003         0.494890004
     0.193839997         0.189930007         0.633409977
     0.219650000         0.214059994         0.704479992
     0.791490018         0.210529998         0.586740017
     0.764479995         0.240879998         0.654219985
     0.776180029         0.678749979         0.239449993
     0.302590013         0.796589971         0.192289993
     0.207849994         0.291720003         0.809019983
     0.678359985         0.229739994         0.754589975
     0.565159976         0.964370012         0.004800000
     0.034970000         0.570710003         0.994690001
     0.692070007         0.688870013         0.135340005
     0.716849983         0.712010026         0.207149997
     0.293049991         0.709540009         0.086510003
     0.267320007         0.738510013         0.155190006
     0.276169986         0.817179978         0.261299998
     0.802380025         0.700580001         0.308109999
     0.703859985         0.208230004         0.687150002
     0.182919994         0.269630015         0.741620004
     0.061659999         0.538309991         0.504350007
     0.537720025         0.938700020         0.495150000
     0.191799998         0.806219995         0.364789993
     0.217069998         0.783029974         0.293119997
     0.791899979         0.789210021         0.412499994
     0.766560018         0.758790016         0.344359994
     0.772849977         0.320279986         0.759779990
     0.306300014         0.203769997         0.804560006
     0.207139999         0.705320001         0.188380003
     0.680819988         0.768450022         0.243660003
     0.561640024         0.038180001         0.004670000
     0.037749998         0.438710004         0.995010018
     0.690100014         0.307900012         0.864380002
     0.714060009         0.285890013         0.791880012
     0.293139994         0.289590001         0.911159992
     0.269039989         0.260320008         0.842000008
     0.725070000         0.181470007         0.262149990
     0.198670000         0.299849987         0.308679998
     0.294589996         0.792940021         0.688260019
     0.816720009         0.728820026         0.740899980
     0.934499979         0.460539997         0.507480025
     0.459710002         0.065909997         0.496549994
     0.809499979         0.191890001         0.365640014
     0.783819973         0.215780005         0.294420004
     0.208859995         0.209649995         0.411650002
     0.233840004         0.240360007         0.343499988
     0.226530001         0.679509997         0.759549975
     0.697300017         0.798049986         0.808130026
     0.793060005         0.294880003         0.190799996
     0.317840010         0.230320007         0.241290003
     0.434439987         0.960409999         0.005320000
     0.959749997         0.565909982         0.996609986
     0.310299993         0.690620005         0.863550007
     0.285310000         0.713750005         0.791819990
     0.708679974         0.709159970         0.912119985
     0.732930005         0.739049971         0.843309999
     0.997399986         0.653140008         0.506250024
     0.995679975         0.574609995         0.507390022
     0.497420013         0.153019994         0.006120000
     0.495629996         0.074469998         0.006670000
     0.001470000         0.346980006         0.502569973
     0.000360000         0.426239997         0.505129993
     0.501489997         0.846840024         0.001620000
     0.500329971         0.926110029         0.004120000
     0.346489996         0.998660028         0.497390002
     0.425680012         0.999899983         0.496030003
     0.846469998         0.498690009         0.998030007
     0.925679982         0.499920011         0.996280015
     0.652100027         0.003190000         0.495660007
     0.573830009         0.004900000         0.495070010
     0.152229995         0.503180027         0.995050013
     0.073919997         0.504880011         0.994769990
     0.975690007         0.530870020         0.755249977
     0.052760005         0.528649986         0.781620026
     0.938329995         0.469509989         0.760209978
     0.092350006         0.461070001         0.748730004
     0.974430025         0.402619988         0.788540006
     0.052060008         0.418720007         0.811169982
     0.946330011         0.599940002         0.726310015
     0.173269987         0.463919997         0.762059987
     0.079159975         0.440329999         0.668600023
     0.053030014         0.488880008         0.857150018
     0.696030021         0.863560021         0.709959984
     0.318610013         0.162980005         0.337249994
     0.624930024         0.121560000         0.187670007
     0.627849996         0.177239999         0.110730000
     0.864400029         0.298790008         0.284130007
     0.435110003         0.884440005         0.493719995
     0.784399986         0.017230000         0.617060006
     0.020339999         0.788169980         0.616599977
     0.036160000         0.680819988         0.993219972
     0.120849997         0.639060020         0.988770008
     0.197640002         0.365579993         0.210659996
     0.817780018         0.661769986         0.837050021
     0.126210004         0.619809985         0.684880018
     0.128549993         0.676320016         0.608500004
     0.366310000         0.796329975         0.781279981
     0.935130000         0.384480000         0.994040012
     0.285919994         0.517530024         0.116169997
     0.519550025         0.287250012         0.117080003
     0.536159992         0.180969998         0.494139999
     0.620829999         0.139180005         0.489659995
     0.307440013         0.139719993         0.705370009
     0.680109978         0.834510028         0.340510011
     0.378109992         0.876230001         0.188180000
     0.373979986         0.821680009         0.110069998
     0.135639995         0.701009989         0.281529993
     0.115850002         0.435689986         0.503910005
     0.212889999         0.982050002         0.615429997
     0.980949998         0.212709993         0.618449986
     0.320239991         0.036780000         0.016750000
     0.362239987         0.120949998         0.021000000
     0.802860022         0.635680020         0.209500000
     0.181060001         0.334309995         0.839410007
     0.875240028         0.378969997         0.686749995
     0.872089982         0.323220015         0.609220028
     0.632229984         0.204280004         0.780200005
     0.615809977         0.935559988         0.004820000
     0.712949991         0.482109994         0.116410002
     0.479490012         0.712899983         0.117399998
     0.820500016         0.536819994         0.521220028
     0.862540007         0.621070027         0.524399996
     0.302390009         0.860130012         0.291839987
     0.678399980         0.164639995         0.657019973
     0.382789999         0.125790000         0.809130013
     0.376509994         0.178810000         0.887070000
     0.135969996         0.293669999         0.716149986
     0.110009998         0.570879996         0.501590014
     0.570490003         0.890439987         0.495480001
     0.212410003         0.015869999         0.380620003
     0.977020025         0.782159984         0.383320004
     0.799199998         0.363169998         0.790300012
     0.181700006         0.661790013         0.158170000
     0.876590014         0.620459974         0.314599991
     0.872300029         0.675779998         0.391169995
     0.634599984         0.793299973         0.217620000
     0.610029995         0.070739999         0.002950000
     0.070500001         0.390419990         0.995239973
     0.710770011         0.515850008         0.881359994
     0.478080004         0.283540010         0.883170009
     0.699400008         0.137730002         0.291979998
     0.319599986         0.837059975         0.658569992
     0.623889983         0.878950000         0.816079974
     0.629050016         0.823329985         0.892759979
     0.862380028         0.703719974         0.713999987
     0.885829985         0.428229988         0.506720006
     0.427089989         0.114349999         0.498039991
     0.786549985         0.985029995         0.381650001
     0.021539999         0.218070000         0.383230001
     0.200629994         0.635940015         0.789460003
     0.818159997         0.338889986         0.161029994
     0.125790000         0.381220013         0.317090005
     0.129969999         0.324660003         0.393169999
     0.363389999         0.205139995         0.214310005
     0.385789990         0.928089976         0.003710000
     0.927169979         0.614359975         0.998250008
     0.286269993         0.484609991         0.880829990
     0.523069978         0.718569994         0.883170009
     0.079779983         0.580839992         0.777149975
     0.882189989         0.466789991         0.743250012
     0.972989976         0.360139996         0.746110022
     0.944729984         0.380739987         0.836170018
     0.078999996         0.371089995         0.833720028
     0.022060037         0.440019995         0.654370010
     0.101279974         0.386739999         0.657450020
     0.106400013         0.477999985         0.631210029
     0.187530041         0.478540003         0.818780005
     0.198349953         0.503329992         0.724969983
     0.197739959         0.411500007         0.750289977
     0.951189995         0.643079996         0.767549992
     0.889699996         0.595070004         0.710690022
     0.976700008         0.617890000         0.677489996
     0.006999969         0.499020010         0.893350005
     0.102820039         0.495979995         0.888239980
     0.639219999         0.168980002         0.164920002
     0.066809997         0.636259973         0.994759977
     0.140469998         0.667379975         0.662450016
     0.566730022         0.136319995         0.494960010
     0.361970007         0.830089986         0.164049998
     0.364210010         0.067639999         0.009660000
     0.858500004         0.333139986         0.662519991
     0.864319980         0.567700028         0.513279974
     0.367729992         0.172930002         0.832080007
     0.862569988         0.668340027         0.336560011
     0.638419986         0.831260026         0.838100016
     0.140080005         0.333339989         0.338800013
     0.918049991         0.798020005         0.516659975
     0.206320003         0.916100025         0.485599995
     0.418199986         0.297899991         0.016440000
     0.706340015         0.416099995         0.986509979
     0.082829997         0.205090001         0.516139984
     0.795729995         0.082560003         0.487100005
     0.582740009         0.705060005         0.016640000
     0.296090007         0.582350016         0.985780001
     0.081299998         0.793110013         0.483049989
     0.790300012         0.917789996         0.511460006
     0.581510007         0.292979985         0.984089971
     0.290380001         0.417620003         0.010780000
     0.919629991         0.205919996         0.484160006
     0.206799999         0.081620000         0.510959983
     0.419939995         0.705730021         0.982529998
     0.706749976         0.581640005         0.012030000
