&GLOBAL
  PROJECT  GEO_OPT_PCE 
  PRINT_LEVEL LOW
  RUN_TYPE GEO_OPT
&END GLOBAL

&MOTION
  &GEO_OPT
     OPTIMIZER BFGS
     &BFGS
       TRUST_RADIUS 0.1
       !RESTART_HESSIAN T
     &END BFGS
     MAX_ITER 999
     MAX_DR 2.000E-4
     RMS_DR 1.000E-4
     MAX_FORCE 2.00E-4
     RMS_FORCE 1.00E-4
  &END GEO_OPT

  !&CONSTRAINT
  !  &FIXED_ATOMS
  !    COMPONENTS_TO_FIX XYZ
  !    LIST 5 10 20 1..100 200..210 
  !  &END FIXED_ATOMS
  !&END CONSTRAINT

  &PRINT
    &RESTART
      &EACH
        GEO_OPT 1
      &END
    &END
  &END PRINT
&END MOTION

&FORCE_EVAL
  METHOD QS

  &DFT
    &POISSON                ! Solver requested for non periodic calculations
       PERIODIC NONE        
       POISSON_SOLVER MT    ! Type of solver
    &END POISSON

    CHARGE 0
    !WFN_RESTART_GEO_OPT_PCE GEO_OPT_PCE.wfn
    BASIS_SET_FILE_NAME ./BASIS_MOLOPT
    POTENTIAL_FILE_NAME ./GTH_POTENTIALS

    &MGRID
       NGRIDS       4
       CUTOFF       400
       REL_CUTOFF   60
    &END MGRID

    &QS
       METHOD GPW
       EPS_DEFAULT 1.0E-12
       EXTRAPOLATION ASPC
    &END QS

    &SCF
      !SCF_GUESS ATOMIC
      SCF_GUESS RESTART
      MAX_SCF   500
      EPS_SCF 1.0e-6
      EPS_DIIS 1.0e-1
      &OUTER_SCF
          EPS_SCF 1.0E-6
          MAX_SCF 500
      &END OUTER_SCF
      &OT
          MINIMIZER DIIS
          PRECONDITIONER FULL_KINETIC
          !ENERGY_GAP 0.001
          SAFE_DIIS ON
      &END OT
    &END SCF

    &XC
      &XC_FUNCTIONAL PBE
      &END XC_FUNCTIONAL
      &vdW_POTENTIAL
         POTENTIAL_TYPE PAIR_POTENTIAL
         &PAIR_POTENTIAL
            TYPE DFTD3
            PARAMETER_FILE_NAME ./dftd3.dat
            REFERENCE_FUNCTIONAL PBE
            CALCULATE_C9_TERM .TRUE.
            !R_CUTOFF 8.
            EPS_CN 0.01
            LONG_RANGE_CORRECTION .TRUE.
            SHORT_RANGE_CORRECTION .TRUE.
         &END PAIR_POTENTIAL
      &END vdW_POTENTIAL
    &END XC

  &END DFT

  &SUBSYS
    &CELL
       ABC 15.0 15.0 15.0          
       ALPHA_BETA_GAMMA  90.0000 90.0000  90.0000
       PERIODIC NONE ! Non-periodic calculations. That's why the POISSON section is needed 
    &END CELL

    &TOPOLOGY
      COORD_FILE_FORMAT XYZ
      COORD_FILE_NAME ./StructureInUse.xyz
      &CENTER_COORDINATES ! center the atomic coordinates in the given box. Useful for big molecules
      &END CENTER_COORDINATES
      &GENERATE
       REORDER .FALSE.
      &END GENERATE
    &END TOPOLOGY

    &KIND  C
      BASIS_SET  TZV2P-MOLOPT-GTH-q4
      POTENTIAL  GTH-PBE-q4
    &END

    &KIND  Cl
      BASIS_SET  TZV2P-MOLOPT-GTH-q7
      POTENTIAL  GTH-PBE-q7
    &END



  &END SUBSYS
  STRESS_TENSOR ANALYTICAL
&END FORCE_EVAL
